*NODE, NSET=Nall
1, 0, 0, 0
2, 0, 0, 10
3, 0, 10, 0
4, 0, 10, 10
5, 10, 0, 0
6, 10, 0, 10
7, 10, 10, 0
8, 10, 10, 10
*ELEMENT, TYPE=C3D8, ELSET=Eall
1, 1, 5, 7, 3, 2, 6, 8, 4
*NSET, NSET=Nx0
1, 2, 3, 4
*NSET, NSET=Nx1
5, 6, 7, 8
*MATERIAL, NAME=STEEL
*ELASTIC
210000., 0.3
*SOLID SECTION, ELSET=Eall, MATERIAL=STEEL
*NSET, NSET=Ny0
2, 6
*NSET, NSET=Nz0
3, 7
*BOUNDARY
Nx0, 1, 1
Ny0, 2, 2
Nz0, 3, 3
*STEP, INC=100
*STATIC
0.1, 1.0
*BOUNDARY
Nx1, 1, 1, 0.01
*EL PRINT, ELSET=Eall
S
*NODE FILE
U
*EL FILE
S
*END STEP
