*NODE, NSET=Nall
1, 0, 0, 0
2, 0, 0, 0.1
3, 0, 0.1, 0
4, 0, 0.1, 0.1
5, 0.05, 0, 0
6, 0.05, 0, 0.1
7, 0.05, 0.1, 0
8, 0.05, 0.1, 0.1
9, 0.1, 0, 0
10, 0.1, 0, 0.1
11, 0.1, 0.1, 0
12, 0.1, 0.1, 0.1
13, 0.15, 0, 0
14, 0.15, 0, 0.1
15, 0.15, 0.1, 0
16, 0.15, 0.1, 0.1
17, 0.2, 0, 0
18, 0.2, 0, 0.1
19, 0.2, 0.1, 0
20, 0.2, 0.1, 0.1
21, 0.25, 0, 0
22, 0.25, 0, 0.1
23, 0.25, 0.1, 0
24, 0.25, 0.1, 0.1
25, 0.3, 0, 0
26, 0.3, 0, 0.1
27, 0.3, 0.1, 0
28, 0.3, 0.1, 0.1
29, 0.35, 0, 0
30, 0.35, 0, 0.1
31, 0.35, 0.1, 0
32, 0.35, 0.1, 0.1
33, 0.4, 0, 0
34, 0.4, 0, 0.1
35, 0.4, 0.1, 0
36, 0.4, 0.1, 0.1
37, 0.45, 0, 0
38, 0.45, 0, 0.1
39, 0.45, 0.1, 0
40, 0.45, 0.1, 0.1
41, 0.5, 0, 0
42, 0.5, 0, 0.1
43, 0.5, 0.1, 0
44, 0.5, 0.1, 0.1
45, 0.55, 0, 0
46, 0.55, 0, 0.1
47, 0.55, 0.1, 0
48, 0.55, 0.1, 0.1
49, 0.6, 0, 0
50, 0.6, 0, 0.1
51, 0.6, 0.1, 0
52, 0.6, 0.1, 0.1
53, 0.65, 0, 0
54, 0.65, 0, 0.1
55, 0.65, 0.1, 0
56, 0.65, 0.1, 0.1
57, 0.7, 0, 0
58, 0.7, 0, 0.1
59, 0.7, 0.1, 0
60, 0.7, 0.1, 0.1
61, 0.75, 0, 0
62, 0.75, 0, 0.1
63, 0.75, 0.1, 0
64, 0.75, 0.1, 0.1
65, 0.8, 0, 0
66, 0.8, 0, 0.1
67, 0.8, 0.1, 0
68, 0.8, 0.1, 0.1
69, 0.85, 0, 0
70, 0.85, 0, 0.1
71, 0.85, 0.1, 0
72, 0.85, 0.1, 0.1
73, 0.9, 0, 0
74, 0.9, 0, 0.1
75, 0.9, 0.1, 0
76, 0.9, 0.1, 0.1
77, 0.95, 0, 0
78, 0.95, 0, 0.1
79, 0.95, 0.1, 0
80, 0.95, 0.1, 0.1
81, 1, 0, 0
82, 1, 0, 0.1
83, 1, 0.1, 0
84, 1, 0.1, 0.1
*ELEMENT, TYPE=C3D8, ELSET=Eall
1, 1, 5, 7, 3, 2, 6, 8, 4
2, 5, 9, 11, 7, 6, 10, 12, 8
3, 9, 13, 15, 11, 10, 14, 16, 12
4, 13, 17, 19, 15, 14, 18, 20, 16
5, 17, 21, 23, 19, 18, 22, 24, 20
6, 21, 25, 27, 23, 22, 26, 28, 24
7, 25, 29, 31, 27, 26, 30, 32, 28
8, 29, 33, 35, 31, 30, 34, 36, 32
9, 33, 37, 39, 35, 34, 38, 40, 36
10, 37, 41, 43, 39, 38, 42, 44, 40
11, 41, 45, 47, 43, 42, 46, 48, 44
12, 45, 49, 51, 47, 46, 50, 52, 48
13, 49, 53, 55, 51, 50, 54, 56, 52
14, 53, 57, 59, 55, 54, 58, 60, 56
15, 57, 61, 63, 59, 58, 62, 64, 60
16, 61, 65, 67, 63, 62, 66, 68, 64
17, 65, 69, 71, 67, 66, 70, 72, 68
18, 69, 73, 75, 71, 70, 74, 76, 72
19, 73, 77, 79, 75, 74, 78, 80, 76
20, 77, 81, 83, 79, 78, 82, 84, 80
*NSET, NSET=Nfix
1, 2, 3, 4
*MATERIAL, NAME=STEEL
*ELASTIC
210000000000., 0.
*DENSITY
7800.
*SOLID SECTION, ELSET=Eall, MATERIAL=STEEL
*BOUNDARY
Nfix, 1, 1
Nall, 2, 3
*STEP
*FREQUENCY
3
*NODE FILE
U
*END STEP
